<number of tasks>
20

<cycle time>
1000

<order strength>
0,816


<task times>
1 144
2 156
3 477
4 165
5 267
6 70
7 284
8 304
9 248
10 55
11 113
12 520
13 489
14 324
15 232
16 45
17 36
18 89
19 259
20 92

<precedence relations>
1,3
2,4
2,5
3,6
3,7
4,6
5,6
5,7
5,8
6,9
6,10
7,9
8,10
9,11
10,11
11,12
11,13
12,14
12,16
12,17
13,15
15,17
17,18
17,19
17,20

<end>
